NAME : n100w40.002.653.tour
COMMENT : Length = 653
COMMENT : Found by LKH [Keld Helsgaun] Tue May  2 05:18:30 2017
TYPE : TOUR
DIMENSION : 101
TOUR_SECTION
1
82
10
45
81
38
97
34
39
55
21
78
62
17
28
29
20
14
43
59
94
74
99
63
37
65
92
35
13
8
58
9
95
86
16
33
76
96
3
71
26
50
73
84
66
100
51
47
93
57
4
5
91
67
54
19
7
69
72
18
12
89
2
44
36
11
90
88
61
31
6
27
83
77
30
56
48
60
52
24
22
85
46
49
80
79
15
32
41
25
40
68
42
53
98
64
23
101
75
87
70
-1
EOF
